100
128
36
2
21
10
41
8
19
4
9
5
6
16
20
1
13
6
13
2
18
20
8
6
4
20
4
22
18
28
23
3
7
8
4
20
9
9
11
16
33
1
1
12
22
10
52
39
22
1
18
27
3
6
40
48
28
8
2
48
47
55
42
42
36
34
34
62
38
56
16
51
1
46
63
41
58
18
52
56
20
50
18
23
34
43
22
2
57
36
3
44
50
2
28
31
64
32
5
14
48
33